generated by phonopy
   1.0              
        126.80312871          0.00000000          0.00000000
          0.00000000        126.80312871          0.00000000
          0.00000000          0.00000000        126.80312871
 Sn  Te  
32000 32000
Direct              
       0.000000       0.000000       0.000000  Sn  
       0.000000       0.000000       0.050000  Sn  
       0.000000       0.000000       0.100000  Sn  
       0.000000       0.000000       0.150000  Sn  
       0.000000       0.000000       0.200000  Sn  
       0.000000       0.000000       0.250000  Sn  
       0.000000       0.000000       0.300000  Sn  
       0.000000       0.000000       0.350000  Sn  
       0.000000       0.000000       0.400000  Sn  
       0.000000       0.000000       0.450000  Sn  
       0.000000       0.000000       0.500000  Sn  
       0.000000       0.000000       0.550000  Sn  
       0.000000       0.000000       0.600000  Sn  
       0.000000       0.000000       0.650000  Sn  
       0.000000       0.000000       0.700000  Sn  
       0.000000       0.000000       0.750000  Sn  
       0.000000       0.000000       0.800000  Sn  
       0.000000       0.000000       0.850000  Sn  
       0.000000       0.000000       0.900000  Sn  
       0.000000       0.000000       0.950000  Sn  
       0.000000       0.050000       0.000000  Sn  
       0.000000       0.050000       0.050000  Sn  
       0.000000       0.050000       0.100000  Sn  
       0.000000       0.050000       0.150000  Sn  
       0.000000       0.050000       0.200000  Sn  
       0.000000       0.050000       0.250000  Sn  
       0.000000       0.050000       0.300000  Sn  
       0.000000       0.050000       0.350000  Sn  
       0.000000       0.050000       0.400000  Sn  
       0.000000       0.050000       0.450000  Sn  
       0.000000       0.050000       0.500000  Sn  
       0.000000       0.050000       0.550000  Sn  
       0.000000       0.050000       0.600000  Sn  
       0.000000       0.050000       0.650000  Sn  
       0.000000       0.050000       0.700000  Sn  
       0.000000       0.050000       0.750000  Sn  
       0.000000       0.050000       0.800000  Sn  
       0.000000       0.050000       0.850000  Sn  
       0.000000       0.050000       0.900000  Sn  
       0.000000       0.050000       0.950000  Sn  
       0.000000       0.100000       0.000000  Sn  
       0.000000       0.100000       0.050000  Sn  
       0.000000       0.100000       0.100000  Sn  
       0.000000       0.100000       0.150000  Sn  
       0.000000       0.100000       0.200000  Sn  
       0.000000       0.100000       0.250000  Sn  
       0.000000       0.100000       0.300000  Sn  
       0.000000       0.100000       0.350000  Sn  
       0.000000       0.100000       0.400000  Sn  
       0.000000       0.100000       0.450000  Sn  
       0.000000       0.100000       0.500000  Sn  
       0.000000       0.100000       0.550000  Sn  
       0.000000       0.100000       0.600000  Sn  
       0.000000       0.100000       0.650000  Sn  
       0.000000       0.100000       0.700000  Sn  
       0.000000       0.100000       0.750000  Sn  
       0.000000       0.100000       0.800000  Sn  
       0.000000       0.100000       0.850000  Sn  
       0.000000       0.100000       0.900000  Sn  
       0.000000       0.100000       0.950000  Sn  
       0.000000       0.150000       0.000000  Sn  
       0.000000       0.150000       0.050000  Sn  
       0.000000       0.150000       0.100000  Sn  
       0.000000       0.150000       0.150000  Sn  
       0.000000       0.150000       0.200000  Sn  
       0.000000       0.150000       0.250000  Sn  
       0.000000       0.150000       0.300000  Sn  
       0.000000       0.150000       0.350000  Sn  
       0.000000       0.150000       0.400000  Sn  
       0.000000       0.150000       0.450000  Sn  
       0.000000       0.150000       0.500000  Sn  
       0.000000       0.150000       0.550000  Sn  
       0.000000       0.150000       0.600000  Sn  
       0.000000       0.150000       0.650000  Sn  
       0.000000       0.150000       0.700000  Sn  
       0.000000       0.150000       0.750000  Sn  
       0.000000       0.150000       0.800000  Sn  
       0.000000       0.150000       0.850000  Sn  
       0.000000       0.150000       0.900000  Sn  
       0.000000       0.150000       0.950000  Sn  
       0.000000       0.200000       0.000000  Sn  
       0.000000       0.200000       0.050000  Sn  
       0.000000       0.200000       0.100000  Sn  
       0.000000       0.200000       0.150000  Sn  
       0.000000       0.200000       0.200000  Sn  
       0.000000       0.200000       0.250000  Sn  
       0.000000       0.200000       0.300000  Sn  
       0.000000       0.200000       0.350000  Sn  
       0.000000       0.200000       0.400000  Sn  
       0.000000       0.200000       0.450000  Sn  
       0.000000       0.200000       0.500000  Sn  
       0.000000       0.200000       0.550000  Sn  
       0.000000       0.200000       0.600000  Sn  
       0.000000       0.200000       0.650000  Sn  
       0.000000       0.200000       0.700000  Sn  
       0.000000       0.200000       0.750000  Sn  
       0.000000       0.200000       0.800000  Sn  
       0.000000       0.200000       0.850000  Sn  
       0.000000       0.200000       0.900000  Sn  
       0.000000       0.200000       0.950000  Sn  
       0.000000       0.250000       0.000000  Sn  
       0.000000       0.250000       0.050000  Sn  
       0.000000       0.250000       0.100000  Sn  
       0.000000       0.250000       0.150000  Sn  
       0.000000       0.250000       0.200000  Sn  
       0.000000       0.250000       0.250000  Sn  
       0.000000       0.250000       0.300000  Sn  
       0.000000       0.250000       0.350000  Sn  
       0.000000       0.250000       0.400000  Sn  
       0.000000       0.250000       0.450000  Sn  
       0.000000       0.250000       0.500000  Sn  
       0.000000       0.250000       0.550000  Sn  
       0.000000       0.250000       0.600000  Sn  
       0.000000       0.250000       0.650000  Sn  
       0.000000       0.250000       0.700000  Sn  
       0.000000       0.250000       0.750000  Sn  
       0.000000       0.250000       0.800000  Sn  
       0.000000       0.250000       0.850000  Sn  
       0.000000       0.250000       0.900000  Sn  
       0.000000       0.250000       0.950000  Sn  
       0.000000       0.300000       0.000000  Sn  
       0.000000       0.300000       0.050000  Sn  
       0.000000       0.300000       0.100000  Sn  
       0.000000       0.300000       0.150000  Sn  
       0.000000       0.300000       0.200000  Sn  
       0.000000       0.300000       0.250000  Sn  
       0.000000       0.300000       0.300000  Sn  
       0.000000       0.300000       0.350000  Sn  
       0.000000       0.300000       0.400000  Sn  
       0.000000       0.300000       0.450000  Sn  
       0.000000       0.300000       0.500000  Sn  
       0.000000       0.300000       0.550000  Sn  
       0.000000       0.300000       0.600000  Sn  
       0.000000       0.300000       0.650000  Sn  
       0.000000       0.300000       0.700000  Sn  
       0.000000       0.300000       0.750000  Sn  
       0.000000       0.300000       0.800000  Sn  
       0.000000       0.300000       0.850000  Sn  
       0.000000       0.300000       0.900000  Sn  
       0.000000       0.300000       0.950000  Sn  
       0.000000       0.350000       0.000000  Sn  
       0.000000       0.350000       0.050000  Sn  
       0.000000       0.350000       0.100000  Sn  
       0.000000       0.350000       0.150000  Sn  
       0.000000       0.350000       0.200000  Sn  
       0.000000       0.350000       0.250000  Sn  
       0.000000       0.350000       0.300000  Sn  
       0.000000       0.350000       0.350000  Sn  
       0.000000       0.350000       0.400000  Sn  
       0.000000       0.350000       0.450000  Sn  
       0.000000       0.350000       0.500000  Sn  
       0.000000       0.350000       0.550000  Sn  
       0.000000       0.350000       0.600000  Sn  
       0.000000       0.350000       0.650000  Sn  
       0.000000       0.350000       0.700000  Sn  
       0.000000       0.350000       0.750000  Sn  
       0.000000       0.350000       0.800000  Sn  
       0.000000       0.350000       0.850000  Sn  
       0.000000       0.350000       0.900000  Sn  
       0.000000       0.350000       0.950000  Sn  
       0.000000       0.400000       0.000000  Sn  
       0.000000       0.400000       0.050000  Sn  
       0.000000       0.400000       0.100000  Sn  
       0.000000       0.400000       0.150000  Sn  
       0.000000       0.400000       0.200000  Sn  
       0.000000       0.400000       0.250000  Sn  
       0.000000       0.400000       0.300000  Sn  
       0.000000       0.400000       0.350000  Sn  
       0.000000       0.400000       0.400000  Sn  
       0.000000       0.400000       0.450000  Sn  
       0.000000       0.400000       0.500000  Sn  
       0.000000       0.400000       0.550000  Sn  
       0.000000       0.400000       0.600000  Sn  
       0.000000       0.400000       0.650000  Sn  
       0.000000       0.400000       0.700000  Sn  
       0.000000       0.400000       0.750000  Sn  
       0.000000       0.400000       0.800000  Sn  
       0.000000       0.400000       0.850000  Sn  
       0.000000       0.400000       0.900000  Sn  
       0.000000       0.400000       0.950000  Sn  
       0.000000       0.450000       0.000000  Sn  
       0.000000       0.450000       0.050000  Sn  
       0.000000       0.450000       0.100000  Sn  
       0.000000       0.450000       0.150000  Sn  
       0.000000       0.450000       0.200000  Sn  
       0.000000       0.450000       0.250000  Sn  
       0.000000       0.450000       0.300000  Sn  
       0.000000       0.450000       0.350000  Sn  
       0.000000       0.450000       0.400000  Sn  
       0.000000       0.450000       0.450000  Sn  
       0.000000       0.450000       0.500000  Sn  
       0.000000       0.450000       0.550000  Sn  
       0.000000       0.450000       0.600000  Sn  
       0.000000       0.450000       0.650000  Sn  
       0.000000       0.450000       0.700000  Sn  
       0.000000       0.450000       0.750000  Sn  
       0.000000       0.450000       0.800000  Sn  
       0.000000       0.450000       0.850000  Sn  
       0.000000       0.450000       0.900000  Sn  
       0.000000       0.450000       0.950000  Sn  
       0.000000       0.500000       0.000000  Sn  
       0.000000       0.500000       0.050000  Sn  
       0.000000       0.500000       0.100000  Sn  
       0.000000       0.500000       0.150000  Sn  
       0.000000       0.500000       0.200000  Sn  
       0.000000       0.500000       0.250000  Sn  
       0.000000       0.500000       0.300000  Sn  
       0.000000       0.500000       0.350000  Sn  
       0.000000       0.500000       0.400000  Sn  
       0.000000       0.500000       0.450000  Sn  
       0.000000       0.500000       0.500000  Sn  
       0.000000       0.500000       0.550000  Sn  
       0.000000       0.500000       0.600000  Sn  
       0.000000       0.500000       0.650000  Sn  
       0.000000       0.500000       0.700000  Sn  
       0.000000       0.500000       0.750000  Sn  
       0.000000       0.500000       0.800000  Sn  
       0.000000       0.500000       0.850000  Sn  
       0.000000       0.500000       0.900000  Sn  
       0.000000       0.500000       0.950000  Sn  
       0.000000       0.550000       0.000000  Sn  
       0.000000       0.550000       0.050000  Sn  
       0.000000       0.550000       0.100000  Sn  
       0.000000       0.550000       0.150000  Sn  
       0.000000       0.550000       0.200000  Sn  
       0.000000       0.550000       0.250000  Sn  
       0.000000       0.550000       0.300000  Sn  
       0.000000       0.550000       0.350000  Sn  
       0.000000       0.550000       0.400000  Sn  
       0.000000       0.550000       0.450000  Sn  
       0.000000       0.550000       0.500000  Sn  
       0.000000       0.550000       0.550000  Sn  
       0.000000       0.550000       0.600000  Sn  
       0.000000       0.550000       0.650000  Sn  
       0.000000       0.550000       0.700000  Sn  
       0.000000       0.550000       0.750000  Sn  
       0.000000       0.550000       0.800000  Sn  
       0.000000       0.550000       0.850000  Sn  
       0.000000       0.550000       0.900000  Sn  
       0.000000       0.550000       0.950000  Sn  
       0.000000       0.600000       0.000000  Sn  
       0.000000       0.600000       0.050000  Sn  
       0.000000       0.600000       0.100000  Sn  
       0.000000       0.600000       0.150000  Sn  
       0.000000       0.600000       0.200000  Sn  
       0.000000       0.600000       0.250000  Sn  
       0.000000       0.600000       0.300000  Sn  
       0.000000       0.600000       0.350000  Sn  
       0.000000       0.600000       0.400000  Sn  
       0.000000       0.600000       0.450000  Sn  
       0.000000       0.600000       0.500000  Sn  
       0.000000       0.600000       0.550000  Sn  
       0.000000       0.600000       0.600000  Sn  
       0.000000       0.600000       0.650000  Sn  
       0.000000       0.600000       0.700000  Sn  
       0.000000       0.600000       0.750000  Sn  
       0.000000       0.600000       0.800000  Sn  
       0.000000       0.600000       0.850000  Sn  
       0.000000       0.600000       0.900000  Sn  
       0.000000       0.600000       0.950000  Sn  
       0.000000       0.650000       0.000000  Sn  
       0.000000       0.650000       0.050000  Sn  
       0.000000       0.650000       0.100000  Sn  
       0.000000       0.650000       0.150000  Sn  
       0.000000       0.650000       0.200000  Sn  
       0.000000       0.650000       0.250000  Sn  
       0.000000       0.650000       0.300000  Sn  
       0.000000       0.650000       0.350000  Sn  
       0.000000       0.650000       0.400000  Sn  
       0.000000       0.650000       0.450000  Sn  
       0.000000       0.650000       0.500000  Sn  
       0.000000       0.650000       0.550000  Sn  
       0.000000       0.650000       0.600000  Sn  
       0.000000       0.650000       0.650000  Sn  
       0.000000       0.650000       0.700000  Sn  
       0.000000       0.650000       0.750000  Sn  
       0.000000       0.650000       0.800000  Sn  
       0.000000       0.650000       0.850000  Sn  
       0.000000       0.650000       0.900000  Sn  
       0.000000       0.650000       0.950000  Sn  
       0.000000       0.700000       0.000000  Sn  
       0.000000       0.700000       0.050000  Sn  
       0.000000       0.700000       0.100000  Sn  
       0.000000       0.700000       0.150000  Sn  
       0.000000       0.700000       0.200000  Sn  
       0.000000       0.700000       0.250000  Sn  
       0.000000       0.700000       0.300000  Sn  
       0.000000       0.700000       0.350000  Sn  
       0.000000       0.700000       0.400000  Sn  
       0.000000       0.700000       0.450000  Sn  
       0.000000       0.700000       0.500000  Sn  
       0.000000       0.700000       0.550000  Sn  
       0.000000       0.700000       0.600000  Sn  
       0.000000       0.700000       0.650000  Sn  
       0.000000       0.700000       0.700000  Sn  
       0.000000       0.700000       0.750000  Sn  
       0.000000       0.700000       0.800000  Sn  
       0.000000       0.700000       0.850000  Sn  
       0.000000       0.700000       0.900000  Sn  
       0.000000       0.700000       0.950000  Sn  
       0.000000       0.750000       0.000000  Sn  
       0.000000       0.750000       0.050000  Sn  
       0.000000       0.750000       0.100000  Sn  
       0.000000       0.750000       0.150000  Sn  
       0.000000       0.750000       0.200000  Sn  
       0.000000       0.750000       0.250000  Sn  
       0.000000       0.750000       0.300000  Sn  
       0.000000       0.750000       0.350000  Sn  
       0.000000       0.750000       0.400000  Sn  
       0.000000       0.750000       0.450000  Sn  
       0.000000       0.750000       0.500000  Sn  
       0.000000       0.750000       0.550000  Sn  
       0.000000       0.750000       0.600000  Sn  
       0.000000       0.750000       0.650000  Sn  
       0.000000       0.750000       0.700000  Sn  
       0.000000       0.750000       0.750000  Sn  
       0.000000       0.750000       0.800000  Sn  
       0.000000       0.750000       0.850000  Sn  
       0.000000       0.750000       0.900000  Sn  
       0.000000       0.750000       0.950000  Sn  
       0.000000       0.800000       0.000000  Sn  
       0.000000       0.800000       0.050000  Sn  
       0.000000       0.800000       0.100000  Sn  
       0.000000       0.800000       0.150000  Sn  
       0.000000       0.800000       0.200000  Sn  
       0.000000       0.800000       0.250000  Sn  
       0.000000       0.800000       0.300000  Sn  
       0.000000       0.800000       0.350000  Sn  
       0.000000       0.800000       0.400000  Sn  
       0.000000       0.800000       0.450000  Sn  
       0.000000       0.800000       0.500000  Sn  
       0.000000       0.800000       0.550000  Sn  
       0.000000       0.800000       0.600000  Sn  
       0.000000       0.800000       0.650000  Sn  
       0.000000       0.800000       0.700000  Sn  
       0.000000       0.800000       0.750000  Sn  
       0.000000       0.800000       0.800000  Sn  
       0.000000       0.800000       0.850000  Sn  
       0.000000       0.800000       0.900000  Sn  
       0.000000       0.800000       0.950000  Sn  
       0.000000       0.850000       0.000000  Sn  
       0.000000       0.850000       0.050000  Sn  
       0.000000       0.850000       0.100000  Sn  
       0.000000       0.850000       0.150000  Sn  
       0.000000       0.850000       0.200000  Sn  
       0.000000       0.850000       0.250000  Sn  
       0.000000       0.850000       0.300000  Sn  
       0.000000       0.850000       0.350000  Sn  
       0.000000       0.850000       0.400000  Sn  
       0.000000       0.850000       0.450000  Sn  
       0.000000       0.850000       0.500000  Sn  
       0.000000       0.850000       0.550000  Sn  
       0.000000       0.850000       0.600000  Sn  
       0.000000       0.850000       0.650000  Sn  
       0.000000       0.850000       0.700000  Sn  
       0.000000       0.850000       0.750000  Sn  
       0.000000       0.850000       0.800000  Sn  
       0.000000       0.850000       0.850000  Sn  
       0.000000       0.850000       0.900000  Sn  
       0.000000       0.850000       0.950000  Sn  
       0.000000       0.900000       0.000000  Sn  
       0.000000       0.900000       0.050000  Sn  
       0.000000       0.900000       0.100000  Sn  
       0.000000       0.900000       0.150000  Sn  
       0.000000       0.900000       0.200000  Sn  
       0.000000       0.900000       0.250000  Sn  
       0.000000       0.900000       0.300000  Sn  
       0.000000       0.900000       0.350000  Sn  
       0.000000       0.900000       0.400000  Sn  
       0.000000       0.900000       0.450000  Sn  
       0.000000       0.900000       0.500000  Sn  
       0.000000       0.900000       0.550000  Sn  
       0.000000       0.900000       0.600000  Sn  
       0.000000       0.900000       0.650000  Sn  
       0.000000       0.900000       0.700000  Sn  
       0.000000       0.900000       0.750000  Sn  
       0.000000       0.900000       0.800000  Sn  
       0.000000       0.900000       0.850000  Sn  
       0.000000       0.900000       0.900000  Sn  
       0.000000       0.900000       0.950000  Sn  
       0.000000       0.950000       0.000000  Sn  
       0.000000       0.950000       0.050000  Sn  
       0.000000       0.950000       0.100000  Sn  
       0.000000       0.950000       0.150000  Sn  
       0.000000       0.950000       0.200000  Sn  
       0.000000       0.950000       0.250000  Sn  
       0.000000       0.950000       0.300000  Sn  
       0.000000       0.950000       0.350000  Sn  
       0.000000       0.950000       0.400000  Sn  
       0.000000       0.950000       0.450000  Sn  
       0.000000       0.950000       0.500000  Sn  
       0.000000       0.950000       0.550000  Sn  
       0.000000       0.950000       0.600000  Sn  
       0.000000       0.950000       0.650000  Sn  
       0.000000       0.950000       0.700000  Sn  
       0.000000       0.950000       0.750000  Sn  
       0.000000       0.950000       0.800000  Sn  
       0.000000       0.950000       0.850000  Sn  
       0.000000       0.950000       0.900000  Sn  
       0.000000       0.950000       0.950000  Sn  
       0.050000       0.000000       0.000000  Sn  
       0.050000       0.000000       0.050000  Sn  
       0.050000       0.000000       0.100000  Sn  
       0.050000       0.000000       0.150000  Sn  
       0.050000       0.000000       0.200000  Sn  
       0.050000       0.000000       0.250000  Sn  
       0.050000       0.000000       0.300000  Sn  
       0.050000       0.000000       0.350000  Sn  
       0.050000       0.000000       0.400000  Sn  
       0.050000       0.000000       0.450000  Sn  
       0.050000       0.000000       0.500000  Sn  
       0.050000       0.000000       0.550000  Sn  
       0.050000       0.000000       0.600000  Sn  
       0.050000       0.000000       0.650000  Sn  
       0.050000       0.000000       0.700000  Sn  
       0.050000       0.000000       0.750000  Sn  
       0.050000       0.000000       0.800000  Sn  
       0.050000       0.000000       0.850000  Sn  
       0.050000       0.000000       0.900000  Sn  
       0.050000       0.000000       0.950000  Sn  
       0.050000       0.050000       0.000000  Sn  
       0.050000       0.050000       0.050000  Sn  
       0.050000       0.050000       0.100000  Sn  
       0.050000       0.050000       0.150000  Sn  
       0.050000       0.050000       0.200000  Sn  
       0.050000       0.050000       0.250000  Sn  
       0.050000       0.050000       0.300000  Sn  
       0.050000       0.050000       0.350000  Sn  
       0.050000       0.050000       0.400000  Sn  
       0.050000       0.050000       0.450000  Sn  
       0.050000       0.050000       0.500000  Sn  
       0.050000       0.050000       0.550000  Sn  
       0.050000       0.050000       0.600000  Sn  
       0.050000       0.050000       0.650000  Sn  
       0.050000       0.050000       0.700000  Sn  
       0.050000       0.050000       0.750000  Sn  
       0.050000       0.050000       0.800000  Sn  
       0.050000       0.050000       0.850000  Sn  
       0.050000       0.050000       0.900000  Sn  
       0.050000       0.050000       0.950000  Sn  
       0.050000       0.100000       0.000000  Sn  
       0.050000       0.100000       0.050000  Sn  
       0.050000       0.100000       0.100000  Sn  
       0.050000       0.100000       0.150000  Sn  
       0.050000       0.100000       0.200000  Sn  
       0.050000       0.100000       0.250000  Sn  
       0.050000       0.100000       0.300000  Sn  
       0.050000       0.100000       0.350000  Sn  
       0.050000       0.100000       0.400000  Sn  
       0.050000       0.100000       0.450000  Sn  
       0.050000       0.100000       0.500000  Sn  
       0.050000       0.100000       0.550000  Sn  
       0.050000       0.100000       0.600000  Sn  
       0.050000       0.100000       0.650000  Sn  
       0.050000       0.100000       0.700000  Sn  
       0.050000       0.100000       0.750000  Sn  
       0.050000       0.100000       0.800000  Sn  
       0.050000       0.100000       0.850000  Sn  
       0.050000       0.100000       0.900000  Sn  
       0.050000       0.100000       0.950000  Sn  
       0.050000       0.150000       0.000000  Sn  
       0.050000       0.150000       0.050000  Sn  
       0.050000       0.150000       0.100000  Sn  
       0.050000       0.150000       0.150000  Sn  
       0.050000       0.150000       0.200000  Sn  
       0.050000       0.150000       0.250000  Sn  
       0.050000       0.150000       0.300000  Sn  
       0.050000       0.150000       0.350000  Sn  
       0.050000       0.150000       0.400000  Sn  
       0.050000       0.150000       0.450000  Sn  
       0.050000       0.150000       0.500000  Sn  
       0.050000       0.150000       0.550000  Sn  
       0.050000       0.150000       0.600000  Sn  
       0.050000       0.150000       0.650000  Sn  
       0.050000       0.150000       0.700000  Sn  
       0.050000       0.150000       0.750000  Sn  
       0.050000       0.150000       0.800000  Sn  
       0.050000       0.150000       0.850000  Sn  
       0.050000       0.150000       0.900000  Sn  
       0.050000       0.150000       0.950000  Sn  
       0.050000       0.200000       0.000000  Sn  
       0.050000       0.200000       0.050000  Sn  
       0.050000       0.200000       0.100000  Sn  
       0.050000       0.200000       0.150000  Sn  
       0.050000       0.200000       0.200000  Sn  
       0.050000       0.200000       0.250000  Sn  
       0.050000       0.200000       0.300000  Sn  
       0.050000       0.200000       0.350000  Sn  
       0.050000       0.200000       0.400000  Sn  
       0.050000       0.200000       0.450000  Sn  
       0.050000       0.200000       0.500000  Sn  
       0.050000       0.200000       0.550000  Sn  
       0.050000       0.200000       0.600000  Sn  
       0.050000       0.200000       0.650000  Sn  
       0.050000       0.200000       0.700000  Sn  
       0.050000       0.200000       0.750000  Sn  
       0.050000       0.200000       0.800000  Sn  
       0.050000       0.200000       0.850000  Sn  
       0.050000       0.200000       0.900000  Sn  
       0.050000       0.200000       0.950000  Sn  
       0.050000       0.250000       0.000000  Sn  
       0.050000       0.250000       0.050000  Sn  
       0.050000       0.250000       0.100000  Sn  
       0.050000       0.250000       0.150000  Sn  
       0.050000       0.250000       0.200000  Sn  
       0.050000       0.250000       0.250000  Sn  
       0.050000       0.250000       0.300000  Sn  
       0.050000       0.250000       0.350000  Sn  
       0.050000       0.250000       0.400000  Sn  
       0.050000       0.250000       0.450000  Sn  
       0.050000       0.250000       0.500000  Sn  
       0.050000       0.250000       0.550000  Sn  
       0.050000       0.250000       0.600000  Sn  
       0.050000       0.250000       0.650000  Sn  
       0.050000       0.250000       0.700000  Sn  
       0.050000       0.250000       0.750000  Sn  
       0.050000       0.250000       0.800000  Sn  
       0.050000       0.250000       0.850000  Sn  
       0.050000       0.250000       0.900000  Sn  
       0.050000       0.250000       0.950000  Sn  
       0.050000       0.300000       0.000000  Sn  
       0.050000       0.300000       0.050000  Sn  
       0.050000       0.300000       0.100000  Sn  
       0.050000       0.300000       0.150000  Sn  
       0.050000       0.300000       0.200000  Sn  
       0.050000       0.300000       0.250000  Sn  
       0.050000       0.300000       0.300000  Sn  
       0.050000       0.300000       0.350000  Sn  
       0.050000       0.300000       0.400000  Sn  
       0.050000       0.300000       0.450000  Sn  
       0.050000       0.300000       0.500000  Sn  
       0.050000       0.300000       0.550000  Sn  
       0.050000       0.300000       0.600000  Sn  
       0.050000       0.300000       0.650000  Sn  
       0.050000       0.300000       0.700000  Sn  
       0.050000       0.300000       0.750000  Sn  
       0.050000       0.300000       0.800000  Sn  
       0.050000       0.300000       0.850000  Sn  
       0.050000       0.300000       0.900000  Sn  
       0.050000       0.300000       0.950000  Sn  
       0.050000       0.350000       0.000000  Sn  
       0.050000       0.350000       0.050000  Sn  
       0.050000       0.350000       0.100000  Sn  
       0.050000       0.350000       0.150000  Sn  
       0.050000       0.350000       0.200000  Sn  
       0.050000       0.350000       0.250000  Sn  
       0.050000       0.350000       0.300000  Sn  
       0.050000       0.350000       0.350000  Sn  
       0.050000       0.350000       0.400000  Sn  
       0.050000       0.350000       0.450000  Sn  
       0.050000       0.350000       0.500000  Sn  
       0.050000       0.350000       0.550000  Sn  
       0.050000       0.350000       0.600000  Sn  
       0.050000       0.350000       0.650000  Sn  
       0.050000       0.350000       0.700000  Sn  
       0.050000       0.350000       0.750000  Sn  
       0.050000       0.350000       0.800000  Sn  
       0.050000       0.350000       0.850000  Sn  
       0.050000       0.350000       0.900000  Sn  
       0.050000       0.350000       0.950000  Sn  
       0.050000       0.400000       0.000000  Sn  
       0.050000       0.400000       0.050000  Sn  
       0.050000       0.400000       0.100000  Sn  
       0.050000       0.400000       0.150000  Sn  
       0.050000       0.400000       0.200000  Sn  
       0.050000       0.400000       0.250000  Sn  
       0.050000       0.400000       0.300000  Sn  
       0.050000       0.400000       0.350000  Sn  
       0.050000       0.400000       0.400000  Sn  
       0.050000       0.400000       0.450000  Sn  
       0.050000       0.400000       0.500000  Sn  